c --- [ banner ] -------------------------------------------------------------
c 
c CaDiCaL Radically Simplified CDCL SAT Solver
c Copyright (c) 2016-2021 A. Biere, M. Fleury, N. Froleyks
c 
c Version 1.5.2 a5f15211db36c3956764e18194dd5bd63bf3b5e6
c g++ (GCC) 9.3.0 -Wall -Wextra -O3 -DNDEBUG
c Fri Oct 21 01:27:37 EDT 2022 Linux gra-login3 3.10.0-1160.66.1.el7.x86_64 x86_64
c 
c --- [ limit ] --------------------------------------------------------------
c 
c setting conflict limit to 200000 conflicts (due to '200000')
c 
c --- [ parsing input ] ------------------------------------------------------
c 
c reading DIMACS file from '33.cubes5725.adj'
c opening file to read '33.cubes5725.adj'
c found 'p cnf 6160 1595484' header
c parsed 1595484 clauses in 20.47 seconds process time
c closing file '33.cubes5725.adj'
c after reading 1457566839 bytes 1390.0 MB
c 
c --- [ options ] ------------------------------------------------------------
c 
c all options are set to their default value
c 
c --- [ solving ] ------------------------------------------------------------
c 
c time measured in process time since initialization
c 
c  seconds    reductions  redundant   irredundant
c          MB     restarts       trail       variables
c            level   conflicts       glue         remaining
c 
c * 20.47 1380  0 0   0    0    0  0% 0 1595422 2336 38%
c { 21.07 1419  0 0   0    0    0  0% 0 1595422 2336 38%
c i 21.95 1450 1158 0   0    9    6 38% 2 1595422 2323 38%
c i 23.05 1482 819 0   1   24   18 40% 28 1595422 2318 38%
c i 24.31 1499 454 0   5   49   40 33% 34 1595422 2317 38%
c i 25.51 1505 175 0   8  151  116 29% 27 1595422 2316 38%
c i 25.63 1505 155 0   8  176  137 29% 27 1595422 2315 38%
c i 25.78 1505 139 0   8  204  159 29% 28 1595422 2314 38%
c i 25.81 1505 134 0   8  213  167 29% 28 1595422 2313 38%
c i 25.90 1506 129 0   8  226  177 29% 28 1595422 2312 38%
c i 25.90 1506 128 0   8  227  177 29% 27 1595422 2311 38%
c i 25.92 1506 127 0   8  230  179 29% 27 1595422 2310 38%
c i 26.05 1506 125 0   8  234  182 29% 27 1595422 2309 37%
c i 26.06 1507 124 0   8  237  184 29% 26 1595422 2308 37%
c i 26.48 1509 121 0   8  259  202 29% 27 1595422 2307 37%
c i 26.49 1509 121 0   8  263  205 29% 27 1595422 2306 37%
c i 26.60 1509 120 0   9  276  215 29% 29 1595422 2305 37%
c i 27.18 1516 116 0  17  300  237 29% 29 1595422 2304 37%
c - 31.10 1460 116 1  17  300  237 29% 29 460521 2304 37%
c i 33.22 1414 101 1  29  430  361 29% 31 460521 2303 37%
c 
c  seconds    reductions  redundant   irredundant
c          MB     restarts       trail       variables
c            level   conflicts       glue         remaining
c 
c i 33.32 1414 98 1  29  456  379 29% 31 460521 2302 37%
c i 33.55 1414 89 1  29  524  439 29% 29 460521 2301 37%
c i 33.61 1414 87 1  29  543  451 29% 29 460521 2300 37%
c i 33.91 1414 77 1  29  656  545 29% 27 460521 2299 37%
c i 34.24 1415 73 1  33  731  609 30% 27 460521 2298 37%
c i 34.26 1415 73 1  33  733  610 30% 27 460521 2297 37%
c i 34.43 1415 72 1  37  766  630 29% 28 460521 2296 37%
c i 34.44 1415 72 1  37  768  631 29% 27 460521 2295 37%
c i 34.48 1415 72 1  37  781  642 29% 28 460521 2294 37%
c i 34.50 1415 73 1  38  787  647 29% 28 460521 2293 37%
c i 34.64 1415 72 1  42  805  662 29% 28 460521 2292 37%
c i 34.67 1415 72 1  42  809  665 29% 28 460521 2291 37%
c i 34.74 1416 72 1  42  811  666 29% 28 460521 2290 37%
c i 35.25 1416 72 1  44  847  697 29% 28 460521 2289 37%
c i 35.40 1416 72 1  47  868  715 29% 28 460521 2288 37%
c } 35.88 1416 68 1  52 1001  828 29% 28 460521 2288 37%
c [ 35.88 1416  0 1  52 1001  828  0% 0 460521 2288 37%
c O 35.88 1416  1 1  52 1002  828 13% 0 460521 2288 37%
c i 35.88 1416  1 1  52 1002  828 13% 0 460521 2280 37%
c i 36.29 1416 20 1  52 1070  871 25% 15 460521 2279 37%
c 
c  seconds    reductions  redundant   irredundant
c          MB     restarts       trail       variables
c            level   conflicts       glue         remaining
c 
c i 36.31 1416 22 1  52 1077  876 26% 17 460521 2278 37%
c i 36.38 1416 27 1  52 1115  906 27% 22 460521 2277 37%
c - 37.51 1607 29 2  52 1299  939 30% 24 460026 2277 37%
c i 37.89 1607 34 2  52 1475 1080 30% 28 460026 2276 37%
c i 37.89 1607 34 2  52 1477 1081 30% 28 460026 2275 37%
c i 38.29 1607 29 2  53 2379 1802 31% 25 460026 2274 37%
c - 39.15 1606 29 3  53 2795 1633 31% 24 460017 2274 37%
c ] 39.92 1605 29 3  53 3002 1802 52% 24 460017 2274 37%
c { 39.92 1606 68 3  53 3002 1802 79% 28 460017 2274 37%
c F 39.95 1605 68 3  53 3003 1803 79% 28 460017 2274 37%
c i 40.36 1605 60 3  53 3199 1930 75% 25 460017 2273 37%
c i 40.94 1605 44 3  53 3917 2368 67% 21 460017 2272 37%
c i 41.49 1605 45 3  64 3998 2437 66% 22 460017 2271 37%
c i 41.91 1605 46 3  75 4044 2477 65% 22 460017 2270 37%
c i 42.55 1606 46 3  92 4113 2526 64% 22 460017 2269 37%
c i 43.81 1606 48 3 136 4314 2709 63% 24 460017 2268 37%
c i 43.86 1606 48 3 138 4325 2718 63% 24 460017 2267 37%
c i 44.52 1606 48 3 151 4415 2779 62% 24 460017 2266 37%
c i 44.88 1606 49 3 159 4450 2806 61% 24 460017 2265 37%
c i 45.80 1606 51 3 177 4523 2875 61% 25 460017 2264 37%
c 
c  seconds    reductions  redundant   irredundant
c          MB     restarts       trail       variables
c            level   conflicts       glue         remaining
c 
c - 48.23 1601 51 4 202 4791 2081 59% 25 459988 2264 37%
c p 58.40 1602 52 4 224 5000 5368 58% 26 459976 2188 36%
c d 59.09 1602 52 4 224 5000 5282 58% 26 402003 2186 35%
c # 61.18 1602 47 4 250 6004 6069 56% 25 402001 2185 35%
c } 64.80 1602 44 4 290 7005 6844 53% 24 402001 2185 35%
c [ 64.80 1602 29 4 290 7005 6844 52% 24 402001 2185 35%
c - 65.53 1371 28 5 291 7285 3119 49% 24 402001 2185 35%
c I 67.40 1370 29 5 292 10007 5314 49% 25 402001 2185 35%
c - 68.31 1371 29 6 292 10173 3789 49% 25 402001 2185 35%
c - 71.46 1372 33 7 295 13543 3850 49% 28 402001 2185 35%
c 2 72.52 1372 34 7 295 15000 5837 50% 29 402000 2185 35%
c p 74.52 1372 34 7 295 15000 8136 50% 29 402000 2185 35%
c ] 74.64 1372 34 7 295 15007 8143 50% 29 402000 2185 35%
c { 74.64 1372 44 7 295 15007 8143 53% 24 402000 2185 35%
c B 74.66 1372 44 7 295 15008 8144 53% 24 402000 2185 35%
c - 80.91 1372 40 8 453 17393 4884 52% 23 402000 2185 35%
c s 81.85 1372 37 8 453 18833 5945 51% 22 399825 2185 35%
c v 88.86 1372 37 8 453 18833 5945 51% 22 399807 2185 35%
c w 88.99 1372 37 8 453 18833 5937 51% 22 399807 2185 35%
c t 89.00 1372 37 8 453 18833 5931 51% 22 399794 2185 35%
c 
c  seconds    reductions   redundant   irredundant
c          MB     restarts        trail       variables
c            level    conflicts       glue        remaining
c 
c e 90.43 1376 37 8 453 18833 5655 51% 22 397686 983 16%
c s 90.57 1376 37 8 453 18833 5654 51% 22 397449 983 16%
c W 94.33 1376 34 8 458 21010 7230 66% 21 397449 983 16%
c - 97.63 1376 34 9 484 21726 5525 65% 21 397449 983 16%
c } 100.04 1376 33 9 584 23516 6918 66% 21 397449 983 16%
c 1 100.04 1376 33 9 584 23516 6918 66% 21 397449 983 16%
c 
c --- [ writing output ] -----------------------------------------------------
c 
c writing simplified CNF to DIMACS file 'simp/33.cubes5725.adj.simp1'
c * 100.04 1376 33 9 584 23516 6918 66% 21 397449 983 16%
c opening file to write 'simp/33.cubes5725.adj.simp1'
c writing 'p cnf 6160 397449' header
c closing file 'simp/33.cubes5725.adj.simp1'
c after writing 170141932 bytes 162.3 MB
c wrote 397449 clauses in 1.28 seconds process time
c 
c --- [ writing extension ] --------------------------------------------------
c 
c writing extension stack to 'simp/33.cubes5725.adj.ext1'
c opening file to write 'simp/33.cubes5725.adj.ext1'
c closing file 'simp/33.cubes5725.adj.ext1'
c after writing 79968 bytes 0.1 MB
c wrote 3631 witnesses in 0.00 seconds process time
c 
c --- [ result ] -------------------------------------------------------------
c 
s SATISFIABLE
c 
c --- [ run-time profiling ] -------------------------------------------------
c 
c process time taken by individual solving procedures
c (percentage relative to process time for solving)
c 
c        58.04   72.95% search
c        45.37   57.02% unstable
c        21.53   27.05% simplify
c        20.47   25.73% parse
c        11.76   14.78% stable
c         9.63   12.10% probe
c         7.11    8.93% vivify
c         2.68    3.36% elim
c         0.60    0.75% lucky
c         0.32    0.40% walk
c         0.30    0.38% subsume
c         0.13    0.16% ternary
c   =================================
c        79.57   78.53% solve
c 
c last line shows process time for solving
c (percentage relative to total process time)
c 
c --- [ statistics ] ---------------------------------------------------------
c 
c chronological:              4474        19.03 %  of conflicts
c conflicts:                 23516       295.54    per second
c decisions:                 68117       856.07    per second
c eliminated:                 1202        19.51 %  of all variables
c fixed:                       822        13.34 %  of all variables
c learned:                   22991        97.77 %  per conflict
c learned_lits:            4363686       100.00 %  learned literals
c minimized:                     0         0.00 %  learned literals
c shrunken:                2410917        55.25 %  learned literals
c minishrunken:             450516        10.32 %  learned literals
c propagations:            3056590         0.04 M  per second
c reduced:                   10622        45.17 %  per conflict
c rephased:                      6      3919.33    interval
c restarts:                    584        40.27    interval
c stabilizing:                   2        42.54 %  of conflicts
c substituted:                   9         0.15 %  of all variables
c subsumed:                   7655         0.22 %  of all clauses
c strengthened:               6905         0.20 %  of all clauses
c ternary:                    1825         0.54 %  of resolved
c vivified:                     35         0.00 %  of all clauses
c walked:                        1     23516.00    interval
c weakened:                   2809         2.97    average size
c 
c seconds are measured in process time for solving
c 
c --- [ resources ] ----------------------------------------------------------
c 
c total process time since initialization:       101.32    seconds
c total real time since initialization:          102.83    seconds
c maximum resident set size of process:         1795.81    MB
c 
c --- [ shutting down ] ------------------------------------------------------
c 
c exit 10
WARNING! DIMACS header mismatch: wrong number of variables.
============================[ Problem Statistics ]=============================
|                                                                             |
|  Number of variables:          3757                                         |
|  Number of clauses:          397449                                         |
|  Parse time:                   2.24 s                                       |
|  Simplification time:          0.06 s                                       |
|                                                                             |
============================[ Search Statistics ]====================================================
| Conflicts |          ORIGINAL         |          LEARNT          | Num Sols |      SUBGRAPHS      |
|           |    Vars  Clauses Literals |    Limit  Clauses Lit/Cl |          | Canonical Noncanon. |
=====================================================================================================
|       104 |    3665   397453 37323714 |     2000      104     89 |        0 |        15         4 |
|       300 |    3665   397499 37324612 |     2000      300     84 |        0 |        31        50 |
|       543 |    3665   397517 37324901 |     2000      543     99 |        0 |        34        68 |
|       884 |    3665   397521 37324990 |     2000      884     99 |        0 |        44        72 |
|      1499 |    3665   397630 37327494 |     2000     1499     84 |        0 |       112       181 |
|      2313 |    3665   397685 37328268 |     3605     1318     49 |        0 |       127       236 |
|      3455 |    3665   397688 37328521 |     3605     2460     76 |        0 |       138       239 |
|      5278 |    3665   397803 37332452 |     5005     2483     62 |        0 |       205       354 |
|      7880 |    3665   397843 37333761 |     6306     2586     55 |        0 |       232       394 |
|     11893 |    3665   398012 37337368 |     7556     3449     48 |        0 |       328       563 |
|     17954 |    3665   398307 37342090 |     8778     5732     61 |        0 |       438       858 |
|     26931 |    3665   398635 37349350 |    11203     5334     43 |        0 |       592      1186 |
|     41753 |    3665   400483 37380713 |    13605     8358     46 |        0 |      1165      3034 |
|     62870 |    3665   402139 37409039 |    16008    15278     72 |        0 |      1710      4690 |
|     93156 |    3665   403233 37426149 |    20809     9965     33 |        0 |      2064      5784 |
|    137939 |    3665   404227 37445839 |    24405    21744     70 |        0 |      2434      6778 |
|    205154 |    3665   405758 37475538 |    30418    21972     64 |        0 |      2970      8309 |
|    305934 |    3665   408012 37518635 |    37620    22554     51 |        0 |      3649     10563 |
|    455778 |    3665   410067 37561034 |    46020    28198     57 |        0 |      4334     12618 |
|    681236 |    3665   413842 37637208 |    55613    52849     79 |        0 |      5451     16393 |
|   1016788 |    3665   416869 37709188 |    68820    49608     66 |        0 |      6666     19420 |
|   1520200 |    3665   421493 37803653 |    84410    59010     64 |        0 |      8165     24044 |
|   2279709 |    3665   432820 38047774 |   103613    71322     66 |        0 |     11270     35371 |
|   3414293 |    3665   445130 38312729 |   126419   119112     76 |        0 |     15565     47681 |
|   5135335 |    3665   482761 39118977 |   156422    80157     39 |        0 |     27625     85312 |
|   7709495 |    3665   531805 40188219 |   191219   142914     64 |        0 |     42169    134356 |
|  11550503 |    3665   585138 41356423 |   234415   164318     61 |        4 |     61785    187685 |
|  17269665 |    3665   622788 42228675 |   287217   159082     42 |        5 |     76118    225334 |
|  25833291 |    3659   621952 42319329 |   350815   285106     72 |        5 |     91983    266691 |
=====================================================================================================
Number of solutions   : 5
Canonical subgraphs   : 97716          (14 /sec)
          order  3    : 1              (200000 /sec)
          order  4    : 1              (500000 /sec)
          order  5    : 1              (250000 /sec)
          order  6    : 1              (55556 /sec)
          order  7    : 1              (8929 /sec)
          order  8    : 2              (1356 /sec)
          order  9    : 7              (352 /sec)
          order 10    : 34             (119 /sec)
          order 11    : 233            (50 /sec)
          order 12    : 1256           (16 /sec)
          order 13    : 6402           (11 /sec)
          order 14    : 39586          (14 /sec)
          order 15    : 44159          (14 /sec)
          order 16    : 4460           (23 /sec)
          order 17    : 655            (18 /sec)
          order 18    : 232            (15 /sec)
          order 19    : 209            (14 /sec)
          order 20    : 233            (14 /sec)
          order 21    : 238            (14 /sec)
          order 22    : 5              (1 /sec)
Noncanonical subgraphs: 287865         (436 /sec)
          order  3    : 0              (-nan /sec)
          order  4    : 0              (-nan /sec)
          order  5    : 0              (-nan /sec)
          order  6    : 0              (-nan /sec)
          order  7    : 0              (-nan /sec)
          order  8    : 0              (-nan /sec)
          order  9    : 0              (-nan /sec)
          order 10    : 0              (-nan /sec)
          order 11    : 0              (-nan /sec)
          order 12    : 0              (-nan /sec)
          order 13    : 30644          (2980 /sec)
          order 14    : 144699         (1108 /sec)
          order 15    : 57575          (725 /sec)
          order 16    : 53870          (132 /sec)
          order 17    : 675            (88 /sec)
          order 18    : 136            (67 /sec)
          order 19    : 4              (352 /sec)
          order 20    : 0              (-nan /sec)
          order 21    : 0              (-nan /sec)
Canonicity checking   : 6918.41 s
Noncanonicity checking: 660.932 s
Total canonicity time : 7579.34 s
database reductions   : 318
restarts              : 43005
conflicts             : 31040868       (1046 /sec)
decisions             : 37716228       (0.00 % random) (1271 /sec)
propagations          : 1644034936     (55394 /sec)
conflict literals     : 3311664682     (55.78 % deleted)
actual reward         : 0.235750
Memory used           : 805.00 MB
CPU time              : 29679 s

UNSATISFIABLE
